(set-option :print-success true)
(set-option :produce-assignments true)
(set-option :produce-proofs true)
(set-logic QF_UF)
(declare-sort Tindex_0 0)
(declare-sort Tindex_1 0)
(declare-sort Tindex_2 0)
(declare-fun op_2 (Tindex_1 Tindex_2 ) Tindex_0)
(declare-fun op_1 () Tindex_2)
(declare-fun op_3 () Tindex_1)
(declare-fun op_0 () Tindex_1)
(assert (not (= (op_2 op_0 op_1) (op_2 op_3 op_1))))
(check-sat)
(get-model)
